param n := 60;
param c := 3000
param : V : p w :=
   0	 490	 480
   1	 266	 256
   2	 274	 264
   3	 383	 373
   4	 307	 297
   5	 340	 330
   6	 422	 412
   7	 291	 281
   8	 317	 307
   9	 402	 392
  10	 296	 286
  11	 332	 322
  12	 442	 432
  13	 275	 265
  14	 313	 303
  15	 488	 478
  16	 265	 255
  17	 277	 267
  18	 416	 406
  19	 278	 268
  20	 336	 326
  21	 375	 365
  22	 265	 255
  23	 390	 380
  24	 417	 407
  25	 289	 279
  26	 324	 314
  27	 388	 378
  28	 303	 293
  29	 339	 329
  30	 372	 362
  31	 283	 273
  32	 375	 365
  33	 497	 487
  34	 262	 252
  35	 271	 261
  36	 432	 422
  37	 270	 260
  38	 328	 318
  39	 420	 410
  40	 276	 266
  41	 334	 324
  42	 420	 410
  43	 273	 263
  44	 337	 327
  45	 380	 370
  46	 270	 260
  47	 380	 370
  48	 464	 454
  49	 260	 250
  50	 306	 296
  51	 376	 366
  52	 291	 281
  53	 363	 353
  54	 486	 476
  55	 270	 260
  56	 274	 264
  57	 475	 465
  58	 266	 256
  59	 289	 279
;

set E :=
   0	   7
   0	   8
   0	  10
   0	  11
   0	  12
   0	  13
   0	  17
   0	  19
   0	  20
   0	  21
   0	  22
   0	  23
   0	  26
   0	  29
   0	  31
   0	  34
   0	  35
   0	  37
   0	  38
   0	  41
   0	  42
   0	  43
   0	  45
   0	  46
   0	  47
   0	  50
   0	  51
   0	  52
   0	  55
   0	  56
   1	   2
   1	   3
   1	   5
   1	   6
   1	   7
   1	   8
   1	  14
   1	  18
   1	  20
   1	  21
   1	  23
   1	  24
   1	  25
   1	  26
   1	  27
   1	  29
   1	  30
   1	  32
   1	  34
   1	  36
   1	  38
   1	  41
   1	  42
   1	  43
   1	  44
   1	  46
   1	  47
   1	  50
   1	  51
   1	  52
   1	  53
   1	  54
   1	  55
   1	  56
   1	  57
   2	   3
   2	   5
   2	   6
   2	   7
   2	   8
   2	  11
   2	  13
   2	  14
   2	  18
   2	  20
   2	  23
   2	  24
   2	  26
   2	  28
   2	  29
   2	  30
   2	  31
   2	  33
   2	  34
   2	  35
   2	  36
   2	  37
   2	  39
   2	  41
   2	  43
   2	  45
   2	  47
   2	  49
   2	  50
   2	  52
   2	  53
   2	  54
   2	  55
   2	  58
   3	   4
   3	   5
   3	   7
   3	   9
   3	  10
   3	  11
   3	  12
   3	  13
   3	  15
   3	  16
   3	  17
   3	  20
   3	  21
   3	  23
   3	  27
   3	  28
   3	  29
   3	  32
   3	  33
   3	  35
   3	  36
   3	  37
   3	  39
   3	  40
   3	  42
   3	  43
   3	  44
   3	  45
   3	  47
   3	  48
   3	  49
   3	  51
   3	  53
   3	  54
   3	  55
   3	  56
   3	  57
   3	  58
   4	   7
   4	   9
   4	  10
   4	  11
   4	  12
   4	  13
   4	  14
   4	  15
   4	  16
   4	  18
   4	  22
   4	  24
   4	  25
   4	  27
   4	  28
   4	  30
   4	  31
   4	  32
   4	  33
   4	  34
   4	  35
   4	  36
   4	  37
   4	  42
   4	  44
   4	  46
   4	  47
   4	  48
   4	  51
   4	  53
   4	  55
   4	  56
   4	  57
   4	  58
   5	   6
   5	  10
   5	  12
   5	  15
   5	  16
   5	  19
   5	  20
   5	  21
   5	  22
   5	  25
   5	  26
   5	  27
   5	  29
   5	  30
   5	  31
   5	  32
   5	  34
   5	  35
   5	  37
   5	  38
   5	  40
   5	  42
   5	  43
   5	  44
   5	  47
   5	  49
   5	  50
   5	  52
   5	  55
   5	  58
   5	  59
   6	   7
   6	   8
   6	   9
   6	  10
   6	  12
   6	  14
   6	  15
   6	  16
   6	  18
   6	  19
   6	  20
   6	  21
   6	  23
   6	  24
   6	  27
   6	  29
   6	  31
   6	  34
   6	  35
   6	  36
   6	  39
   6	  40
   6	  41
   6	  42
   6	  43
   6	  45
   6	  46
   6	  47
   6	  54
   6	  55
   6	  57
   6	  58
   7	   8
   7	  10
   7	  11
   7	  12
   7	  13
   7	  14
   7	  16
   7	  18
   7	  19
   7	  20
   7	  21
   7	  23
   7	  25
   7	  27
   7	  29
   7	  30
   7	  32
   7	  33
   7	  34
   7	  35
   7	  37
   7	  38
   7	  41
   7	  45
   7	  46
   7	  47
   7	  49
   7	  52
   7	  53
   7	  55
   7	  56
   7	  59
   8	  10
   8	  11
   8	  14
   8	  15
   8	  16
   8	  20
   8	  21
   8	  24
   8	  26
   8	  27
   8	  29
   8	  30
   8	  31
   8	  32
   8	  34
   8	  35
   8	  36
   8	  38
   8	  39
   8	  42
   8	  47
   8	  49
   8	  50
   8	  51
   8	  52
   8	  53
   8	  54
   8	  55
   8	  56
   8	  58
   8	  59
   9	  10
   9	  11
   9	  12
   9	  13
   9	  17
   9	  24
   9	  25
   9	  27
   9	  28
   9	  31
   9	  37
   9	  38
   9	  39
   9	  40
   9	  41
   9	  42
   9	  44
   9	  46
   9	  48
   9	  50
   9	  51
   9	  53
   9	  55
   9	  56
   9	  59
  10	  12
  10	  16
  10	  18
  10	  20
  10	  24
  10	  26
  10	  27
  10	  29
  10	  32
  10	  33
  10	  35
  10	  37
  10	  38
  10	  40
  10	  41
  10	  42
  10	  43
  10	  44
  10	  45
  10	  47
  10	  48
  10	  49
  10	  50
  10	  51
  10	  58
  10	  59
  11	  12
  11	  13
  11	  16
  11	  18
  11	  19
  11	  20
  11	  21
  11	  23
  11	  24
  11	  25
  11	  26
  11	  27
  11	  29
  11	  30
  11	  31
  11	  32
  11	  34
  11	  35
  11	  36
  11	  37
  11	  40
  11	  41
  11	  42
  11	  45
  11	  46
  11	  47
  11	  48
  11	  49
  11	  50
  11	  51
  11	  53
  11	  55
  11	  57
  11	  58
  12	  14
  12	  18
  12	  19
  12	  23
  12	  25
  12	  26
  12	  27
  12	  29
  12	  33
  12	  34
  12	  37
  12	  38
  12	  40
  12	  41
  12	  42
  12	  45
  12	  46
  12	  47
  12	  48
  12	  53
  12	  55
  12	  56
  12	  57
  13	  16
  13	  17
  13	  21
  13	  22
  13	  23
  13	  24
  13	  25
  13	  26
  13	  27
  13	  28
  13	  29
  13	  31
  13	  32
  13	  33
  13	  35
  13	  37
  13	  38
  13	  40
  13	  41
  13	  42
  13	  44
  13	  45
  13	  46
  13	  47
  13	  48
  13	  49
  13	  50
  13	  51
  13	  53
  13	  55
  13	  57
  14	  15
  14	  17
  14	  20
  14	  22
  14	  24
  14	  27
  14	  30
  14	  31
  14	  35
  14	  37
  14	  40
  14	  41
  14	  43
  14	  47
  14	  48
  14	  50
  14	  52
  14	  54
  14	  55
  14	  57
  14	  59
  15	  18
  15	  19
  15	  21
  15	  23
  15	  30
  15	  32
  15	  34
  15	  36
  15	  37
  15	  40
  15	  41
  15	  42
  15	  43
  15	  44
  15	  45
  15	  46
  15	  48
  15	  51
  15	  52
  15	  53
  15	  54
  15	  55
  15	  56
  15	  58
  16	  19
  16	  21
  16	  23
  16	  24
  16	  25
  16	  27
  16	  28
  16	  31
  16	  32
  16	  33
  16	  35
  16	  36
  16	  37
  16	  38
  16	  39
  16	  44
  16	  45
  16	  46
  16	  48
  16	  51
  16	  52
  16	  53
  16	  54
  16	  55
  17	  19
  17	  20
  17	  22
  17	  23
  17	  25
  17	  26
  17	  27
  17	  28
  17	  31
  17	  33
  17	  34
  17	  36
  17	  39
  17	  40
  17	  42
  17	  43
  17	  44
  17	  49
  17	  50
  17	  51
  17	  52
  17	  53
  17	  57
  17	  59
  18	  19
  18	  20
  18	  21
  18	  24
  18	  26
  18	  27
  18	  28
  18	  30
  18	  32
  18	  35
  18	  36
  18	  37
  18	  38
  18	  39
  18	  40
  18	  41
  18	  42
  18	  43
  18	  44
  18	  46
  18	  47
  18	  48
  18	  50
  18	  51
  18	  55
  18	  58
  18	  59
  19	  20
  19	  21
  19	  23
  19	  25
  19	  26
  19	  30
  19	  31
  19	  33
  19	  34
  19	  35
  19	  38
  19	  39
  19	  41
  19	  43
  19	  45
  19	  46
  19	  48
  19	  49
  19	  52
  19	  53
  19	  54
  19	  57
  19	  59
  20	  24
  20	  25
  20	  26
  20	  28
  20	  33
  20	  34
  20	  35
  20	  36
  20	  37
  20	  38
  20	  39
  20	  40
  20	  42
  20	  43
  20	  44
  20	  49
  20	  50
  20	  51
  20	  52
  20	  54
  20	  57
  20	  58
  20	  59
  21	  24
  21	  26
  21	  27
  21	  28
  21	  29
  21	  30
  21	  31
  21	  34
  21	  35
  21	  36
  21	  37
  21	  38
  21	  40
  21	  41
  21	  42
  21	  43
  21	  44
  21	  45
  21	  48
  21	  49
  21	  50
  21	  51
  21	  53
  21	  54
  21	  55
  21	  57
  22	  23
  22	  24
  22	  25
  22	  26
  22	  27
  22	  28
  22	  30
  22	  32
  22	  33
  22	  34
  22	  35
  22	  37
  22	  38
  22	  41
  22	  42
  22	  43
  22	  44
  22	  45
  22	  46
  22	  48
  22	  50
  22	  51
  22	  52
  22	  55
  22	  56
  22	  57
  22	  58
  23	  24
  23	  28
  23	  29
  23	  30
  23	  32
  23	  33
  23	  39
  23	  40
  23	  42
  23	  43
  23	  45
  23	  46
  23	  47
  23	  49
  23	  51
  23	  52
  23	  53
  23	  54
  23	  55
  23	  56
  23	  57
  23	  58
  23	  59
  24	  25
  24	  27
  24	  28
  24	  29
  24	  30
  24	  31
  24	  32
  24	  34
  24	  36
  24	  37
  24	  38
  24	  41
  24	  43
  24	  45
  24	  46
  24	  47
  24	  48
  24	  51
  24	  54
  24	  56
  24	  57
  24	  58
  24	  59
  25	  26
  25	  27
  25	  28
  25	  29
  25	  30
  25	  31
  25	  34
  25	  36
  25	  37
  25	  39
  25	  41
  25	  42
  25	  43
  25	  44
  25	  45
  25	  46
  25	  47
  25	  50
  25	  51
  25	  53
  25	  55
  25	  56
  25	  57
  25	  59
  26	  27
  26	  28
  26	  30
  26	  31
  26	  32
  26	  33
  26	  35
  26	  36
  26	  37
  26	  38
  26	  40
  26	  41
  26	  42
  26	  43
  26	  44
  26	  48
  26	  52
  26	  53
  26	  54
  26	  55
  26	  56
  26	  57
  27	  28
  27	  30
  27	  31
  27	  34
  27	  36
  27	  37
  27	  38
  27	  39
  27	  40
  27	  41
  27	  43
  27	  44
  27	  50
  27	  55
  27	  56
  27	  57
  27	  58
  27	  59
  28	  29
  28	  30
  28	  33
  28	  34
  28	  35
  28	  36
  28	  37
  28	  38
  28	  39
  28	  40
  28	  42
  28	  43
  28	  45
  28	  46
  28	  48
  28	  49
  28	  50
  28	  51
  28	  52
  28	  53
  28	  54
  28	  55
  28	  56
  28	  57
  28	  59
  29	  31
  29	  33
  29	  34
  29	  35
  29	  37
  29	  38
  29	  39
  29	  42
  29	  43
  29	  44
  29	  45
  29	  49
  29	  50
  29	  51
  29	  52
  29	  53
  29	  54
  29	  55
  29	  57
  29	  58
  29	  59
  30	  33
  30	  35
  30	  38
  30	  40
  30	  41
  30	  42
  30	  43
  30	  45
  30	  47
  30	  48
  30	  49
  30	  50
  30	  55
  30	  57
  30	  59
  31	  32
  31	  33
  31	  35
  31	  36
  31	  37
  31	  39
  31	  41
  31	  42
  31	  43
  31	  45
  31	  46
  31	  50
  31	  51
  31	  54
  31	  57
  31	  58
  31	  59
  32	  33
  32	  34
  32	  35
  32	  36
  32	  37
  32	  38
  32	  39
  32	  40
  32	  44
  32	  47
  32	  51
  32	  52
  32	  53
  32	  54
  32	  55
  32	  56
  32	  57
  32	  58
  33	  35
  33	  39
  33	  40
  33	  41
  33	  45
  33	  46
  33	  50
  33	  52
  33	  53
  33	  54
  33	  56
  33	  59
  34	  36
  34	  38
  34	  39
  34	  40
  34	  41
  34	  42
  34	  43
  34	  44
  34	  46
  34	  47
  34	  48
  34	  51
  34	  52
  34	  54
  34	  55
  34	  57
  34	  59
  35	  36
  35	  38
  35	  40
  35	  42
  35	  43
  35	  44
  35	  47
  35	  48
  35	  49
  35	  51
  35	  55
  35	  57
  36	  37
  36	  38
  36	  41
  36	  42
  36	  44
  36	  45
  36	  46
  36	  47
  36	  48
  36	  51
  36	  52
  36	  54
  36	  56
  36	  57
  36	  58
  37	  38
  37	  39
  37	  40
  37	  41
  37	  43
  37	  46
  37	  47
  37	  48
  37	  49
  37	  50
  37	  52
  37	  53
  37	  54
  37	  55
  37	  58
  38	  39
  38	  40
  38	  41
  38	  42
  38	  44
  38	  45
  38	  47
  38	  48
  38	  49
  38	  50
  38	  52
  38	  54
  38	  57
  38	  58
  39	  40
  39	  42
  39	  43
  39	  44
  39	  49
  39	  51
  39	  53
  39	  54
  39	  56
  39	  57
  39	  59
  40	  41
  40	  42
  40	  44
  40	  45
  40	  46
  40	  47
  40	  49
  40	  50
  40	  52
  40	  54
  40	  56
  40	  57
  40	  58
  40	  59
  41	  42
  41	  43
  41	  44
  41	  49
  41	  51
  41	  53
  41	  54
  41	  55
  41	  56
  41	  59
  42	  44
  42	  45
  42	  47
  42	  48
  42	  50
  42	  51
  42	  52
  42	  53
  42	  54
  42	  55
  42	  56
  42	  59
  43	  44
  43	  46
  43	  47
  43	  49
  43	  50
  43	  51
  43	  54
  43	  55
  43	  57
  43	  58
  43	  59
  44	  45
  44	  46
  44	  48
  44	  50
  44	  51
  44	  52
  44	  53
  44	  55
  44	  56
  44	  58
  44	  59
  45	  48
  45	  49
  45	  50
  45	  51
  45	  52
  45	  55
  45	  58
  46	  48
  46	  49
  46	  50
  46	  51
  46	  55
  46	  58
  47	  48
  47	  50
  47	  51
  47	  52
  47	  53
  47	  56
  47	  57
  48	  50
  48	  51
  48	  52
  48	  53
  48	  54
  48	  55
  48	  57
  48	  59
  49	  50
  49	  51
  49	  54
  49	  55
  49	  56
  49	  57
  49	  59
  50	  53
  50	  55
  50	  57
  50	  58
  50	  59
  51	  52
  51	  53
  51	  54
  51	  58
  51	  59
  52	  53
  52	  56
  52	  59
  53	  54
  53	  55
  53	  56
  53	  58
  53	  59
  54	  55
  54	  56
  54	  57
  54	  58
  55	  56
  55	  57
  55	  58
  56	  57
  56	  59
  57	  58
  57	  59
  58	  59
;
